
Gurobi 6.5.2 (win64) logging started 07/23/16 03:04:52


Gurobi 6.5.2 (win64) logging started 07/23/16 03:04:52

Optimize a model with 14950 rows, 1221 columns and 32707 nonzeros
Coefficient statistics:
  Matrix range    [4e-06, 1e+02]
  Objective range [1e+00, 1e+00]
  Bounds range    [1e+00, 1e+00]
  RHS range       [1e+00, 6e+02]
Presolve removed 14194 rows and 162 columns
Presolve time: 0.03s
Presolved: 756 rows, 1059 columns, 4503 nonzeros
Variable types: 260 continuous, 799 integer (799 binary)

Root relaxation: objective 1.305755e+02, 2002 iterations, 0.07 seconds

    Nodes    |    Current Node    |     Objective Bounds      |     Work
 Expl Unexpl |  Obj  Depth IntInf | Incumbent    BestBd   Gap | It/Node Time

     0     0  130.57554    0  212          -  130.57554      -     -    0s
H    0     0                     710.0000000  130.57554  81.6%     -    0s
     0     0  140.47220    0  178  710.00000  140.47220  80.2%     -    0s
     0     0  140.95750    0  180  710.00000  140.95750  80.1%     -    0s
H    0     0                     162.9464615  140.95750  13.5%     -    0s
H    0     0                     162.9006507  140.95750  13.5%     -    0s
     0     0  143.09748    0  190  162.90065  143.09748  12.2%     -    0s
     0     0  143.40629    0  188  162.90065  143.40629  12.0%     -    0s
     0     0  144.01883    0  189  162.90065  144.01883  11.6%     -    0s
     0     0  144.01925    0  188  162.90065  144.01925  11.6%     -    0s
H    0     0                     162.5993772  144.01925  11.4%     -    0s
H    0     0                     162.5897030  144.01925  11.4%     -    0s
     0     0  144.09876    0  163  162.58970  144.09876  11.4%     -    0s
     0     0  144.09876    0  164  162.58970  144.09876  11.4%     -    0s
     0     0  144.10593    0  188  162.58970  144.10593  11.4%     -    0s
     0     0  144.10593    0  182  162.58970  144.10593  11.4%     -    0s
H    0     0                     162.1470271  144.10593  11.1%     -    0s
     0     2  144.10593    0  182  162.14703  144.10593  11.1%     -    0s
*   81    58              24     162.0420676  144.10593  11.1%  38.9    0s
*  144   118              31     161.9592941  144.10593  11.0%  31.3    0s
*  166   120              29     161.9380641  144.10593  11.0%  28.4    0s
H  217   144                     161.9186717  144.10593  11.0%  23.8    0s
*  301   201              27     161.8986963  144.10593  11.0%  21.4    0s
H  374   266                     161.8898616  144.10593  11.0%  20.8    0s
H  392   275                     161.8754996  144.10593  11.0%  21.2    0s
*  409   273              24     161.8141783  144.10593  10.9%  20.7    0s
H  507   340                     161.7102010  144.10593  10.9%  21.2    0s
H  528   359                     161.6722040  144.10593  10.9%  20.9    0s
H  570   368                     161.6651492  144.10593  10.9%  20.5    0s
H  656   443                     161.6481225  144.10593  10.9%  19.9    0s
H  728   499                     161.5512000  144.10593  10.8%  20.2    0s
H  786   537                     161.5307446  144.10593  10.8%  20.2    1s
H  940   657                     161.5305192  144.12102  10.8%  20.0    1s
H 1042   701                     161.5296631  160.87416  0.41%  20.4    1s
H 1058   676                     161.5180137  161.24671  0.17%  20.1    1s
H 1084   660                     161.5125637  161.41915  0.06%  26.6    2s
H 1088   628                     161.5124966  161.42028  0.06%  26.5    2s
H 1098   604                     161.5100091  161.42028  0.06%  29.6    2s
H 1100   574                     161.5058702  161.42028  0.05%  29.5    2s
H 1102   547                     161.5052598  161.42028  0.05%  29.5    2s
H 1150   514                     161.5041572  161.44107  0.04%  31.9    3s
* 1151   487              44     161.5038894  161.44107  0.04%  31.9    3s

Cutting planes:
  Gomory: 37
  MIR: 33
  Flow cover: 22

Explored 1204 nodes (40635 simplex iterations) in 3.58 seconds
Thread count was 8 (of 8 available processors)

Optimal solution found (tolerance 1.00e-04)
Best objective 1.615038893561e+02, best bound 1.615017055945e+02, gap 0.0014%

Wrote requested result file 'H2\instance19\\Results19E_Sol6.lp'

